(set-logic HORN)
(declare-fun state (Int Int Int (Array Int Int) Int Int Bool Bool Bool Int Int) Bool)
(assert (forall ((|F_5| Int) (|.y.10| Int) (|.y.11| Int) (|G_5| (Array Int Int)) (|A_6| Int) (|E_5| Int) (|.loc.12| Bool) (|.loc.13| Bool) (|.loc.14| Bool) (|H_0| Int) (|H_5| Int) (|.loc.23| Bool) (|.loc.21| Bool) (|.loc.22| Bool) (|.y.20| Int) (|.y.15| Int) (|.y.18| (Array Int Int)) (|.y.19| Int) (|.y.16| Int) (|.y.17| Int) (|.xtv.1| Int) (|.xtv.2| Int)) (=> (and (and (not .loc.12) (not .loc.13)) (not .loc.14)) (state |F_5| |.y.10| |.y.11| |G_5| |A_6| |E_5| |.loc.12| |.loc.13| |.loc.14| |H_0| |H_5|))))
(assert (forall ((|F_5| Int) (|.y.10| Int) (|.y.11| Int) (|G_5| (Array Int Int)) (|A_6| Int) (|E_5| Int) (|.loc.12| Bool) (|.loc.13| Bool) (|.loc.14| Bool) (|H_0| Int) (|H_5| Int) (|.loc.23| Bool) (|.loc.21| Bool) (|.loc.22| Bool) (|.y.20| Int) (|.y.15| Int) (|.y.18| (Array Int Int)) (|.y.19| Int) (|.y.16| Int) (|.y.17| Int) (|.xtv.1| Int) (|.xtv.2| Int)) (=> (and (state |F_5| |.y.10| |.y.11| |G_5| |A_6| |E_5| |.loc.12| |.loc.13| |.loc.14| |H_0| |H_5|) (let ((.def_21 (not .loc.12))) (let ((.def_22 (not .loc.13))) (let ((.def_29 (<= (select G_5 H_5) (- 1)))) (let ((.def_31 (<= F_5 0))) (let ((.def_33 (not (<= H_5 0)))) (let ((.def_42 (and (or .def_31 .def_33) (and (= (+ F_5 (+ E_5 (* (- 1) H_5))) 0) (not (<= A_6 E_5)))))) (let ((.def_48 (not .loc.21))) (let ((.def_51 (not .loc.22))) (let ((.def_56 (not .loc.23))) (let ((.def_63 (or .def_31 (not (<= (+ F_5 A_6) 0))))) (let ((.def_66 (<= (select G_5 (+ F_5 A_6)) (- 1)))) (let ((.def_69 (= F_5 .y.15))) (let ((.def_72 (= G_5 .y.18))) (let ((.def_75 (= A_6 .y.19))) (let ((.def_93 (and .loc.13 (not .def_31)))) (let ((.def_143 (<= .y.10 0))) (and (not .loc.14) (or (or (or (or (and (or (or (and (and (and (and .loc.12 (and .def_29 .def_42)) .loc.23) .def_48) .def_51) (and (and (and (and (and (and (= .y.20 0) (and .def_21 (and (and .loc.21 .loc.22) .def_56))) .def_63) .def_66) .def_69) .def_72) .def_75)) (and (= (+ E_5 (* (- 1) .y.20)) (- 1)) (and .def_75 (and .def_72 (and .def_69 (and .def_56 (and .loc.22 (and .loc.21 (and .loc.12 (and .def_42 (not .def_29))))))))))) .def_93) (and (= .y.10 .y.15) (and (<= (to_int (* (/ 1 16777216) (to_real (* 16777216 A_6)))) .y.11) (and (= .y.19 0) (and .def_22 (and .def_72 (and .def_56 (and .def_48 (and .loc.12 .loc.22))))))))) (and (not .def_66) (and (= (+ A_6 (* (- 1) .y.19)) (- 1)) (and .def_72 (and .def_69 (and .def_63 (and .def_21 (and .def_56 (and .def_48 (and .loc.22 .def_93)))))))))) (and (not (<= .y.16 0)) (and (not (<= .y.19 0)) (and (= .y.17 0) (and .def_22 (and .def_69 (and .def_21 (and .def_56 (and .loc.21 .def_51))))))))) (and (= .y.10 .y.16) (and (or .def_33 .def_143) (and (not (<= (to_int (* (/ 1 16777216) (to_real (* (- 1) (* (- 16777216) A_6))))) .y.11)) (and (= (+ .y.10 (+ .y.11 (* (- 1) H_5))) 0) (and (not .def_143) (and (= (+ .y.11 (* (- 1) .y.17)) (- 1)) (and (= .y.18 (store G_5 H_5 H_0)) (and .def_22 (and .def_75 (and .def_69 (and .def_56 (and .def_51 (and .loc.12 .loc.21)))))))))))))))))))))))))))))))) (state |.y.15| |.y.16| |.y.17| |.y.18| |.y.19| |.y.20| |.loc.21| |.loc.22| |.loc.23| |.xtv.1| |.xtv.2|))))
(assert (forall ((|F_5| Int) (|.y.10| Int) (|.y.11| Int) (|G_5| (Array Int Int)) (|A_6| Int) (|E_5| Int) (|.loc.12| Bool) (|.loc.13| Bool) (|.loc.14| Bool) (|H_0| Int) (|H_5| Int) (|.loc.23| Bool) (|.loc.21| Bool) (|.loc.22| Bool) (|.y.20| Int) (|.y.15| Int) (|.y.18| (Array Int Int)) (|.y.19| Int) (|.y.16| Int) (|.y.17| Int) (|.xtv.1| Int) (|.xtv.2| Int)) (=> (state |F_5| |.y.10| |.y.11| |G_5| |A_6| |E_5| |.loc.12| |.loc.13| |.loc.14| |H_0| |H_5|) (not (and .loc.14 (and (not .loc.12) (not .loc.13)))))))
(check-sat)
